SDVRP instances/custom_instances/p01_27_split0.vrp
NAME:p01_27_split
BEST_KNOWN: 0
COMMENT: 0
DIMENSION: 201
CAPACITY: 160
EDGE_WEIGHT_FORMAT: FUNCTION
EDGE_WEIGHT_TYPE: EXACT_2D
NODE_COORD_SECTION
1 0.00000 0.00000
2 -49 19
3 -49 19
4 -49 19
5 -49 19
6 16 45
7 16 45
8 16 45
9 16 45
10 16 45
11 16 45
12 16 45
13 -17 45
14 -17 45
15 -17 45
16 -17 45
17 -17 45
18 -16 -5
19 -16 -5
20 -16 -5
21 -16 -5
22 -16 -5
23 22 9
24 22 9
25 -8 -32
26 -8 -32
27 -8 -32
28 -8 -32
29 -8 -32
30 -8 -32
31 -18 -29
32 -18 -29
33 -18 -29
34 -18 -29
35 -18 27
36 -18 27
37 -18 27
38 -18 27
39 -13 0
40 -13 0
41 -7 46
42 -7 46
43 -36 -19
44 -36 -19
45 -36 -19
46 -36 -19
47 28 -21
48 28 -21
49 -47 32
50 -47 32
51 -47 32
52 -47 32
53 -47 32
54 -21 19
55 -21 19
56 -21 19
57 -21 19
58 -21 19
59 -21 -45
60 -21 -45
61 28 35
62 28 35
63 28 35
64 28 35
65 28 35
66 -38 -22
67 -38 -22
68 -38 -22
69 -17 42
70 -17 42
71 -17 42
72 18 15
73 18 15
74 18 15
75 18 15
76 18 15
77 6 -20
78 6 -20
79 6 -20
80 6 -20
81 6 -20
82 8 9
83 8 9
84 8 9
85 11 -5
86 11 -5
87 11 -5
88 11 -5
89 11 -5
90 11 -5
91 11 -5
92 28 -50
93 28 -50
94 28 -50
95 -33 32
96 -33 32
97 -33 32
98 -33 32
99 -33 32
100 -33 32
101 -23 -33
102 -23 -33
103 -23 -33
104 -23 -33
105 31 -32
106 31 -32
107 33 -9
108 33 -9
109 33 -9
110 33 -9
111 33 -9
112 -48 46
113 -48 46
114 35 48
115 35 48
116 35 48
117 35 48
118 35 48
119 35 48
120 24 31
121 24 31
122 24 31
123 24 31
124 24 31
125 17 31
126 17 31
127 17 31
128 -7 7
129 -7 7
130 -7 7
131 -7 7
132 -7 7
133 -15 -34
134 8 -16
135 8 -16
136 8 -16
137 8 -16
138 8 -16
139 8 -16
140 4 -6
141 0 -40
142 0 -40
143 0 -40
144 0 -40
145 0 -40
146 -35 18
147 -35 18
148 25 6
149 25 6
150 25 6
151 5 -6
152 -7 35
153 -7 35
154 -7 35
155 -7 35
156 -7 35
157 -49 30
158 0 -19
159 0 -19
160 0 -19
161 0 -19
162 0 -19
163 14 -33
164 14 -33
165 14 -33
166 14 -33
167 14 -33
168 14 -33
169 48 5
170 48 5
171 48 5
172 48 5
173 -25 22
174 -25 22
175 -25 22
176 -25 22
177 -25 22
178 -25 22
179 -35 -19
180 -35 -19
181 -35 -19
182 -35 -19
183 -35 -19
184 -35 -19
185 38 -8
186 38 -8
187 38 -8
188 47 36
189 47 36
190 47 36
191 47 36
192 47 36
193 34 35
194 34 35
195 34 35
196 34 35
197 34 35
198 -28 6
199 -28 6
200 -28 6
201 -28 6
DEMAND_SECTION
1 0
2 32
3 32
4 2
5 2
6 32
7 32
8 8
9 2
10 2
11 2
12 1
13 32
14 16
15 8
16 2
17 2
18 32
19 32
20 2
21 2
22 2
23 32
24 2
25 32
26 32
27 2
28 2
29 2
30 1
31 32
32 16
33 2
34 1
35 16
36 8
37 2
38 2
39 16
40 8
41 32
42 8
43 32
44 32
45 8
46 1
47 16
48 8
49 32
50 8
51 2
52 2
53 2
54 16
55 8
56 2
57 2
58 2
59 32
60 2
61 32
62 32
63 2
64 2
65 2
66 32
67 8
68 2
69 32
70 16
71 8
72 16
73 8
74 2
75 2
76 2
77 32
78 16
79 2
80 2
81 2
82 32
83 2
84 2
85 32
86 16
87 8
88 2
89 2
90 2
91 1
92 32
93 32
94 16
95 32
96 32
97 8
98 2
99 2
100 2
101 32
102 16
103 8
104 2
105 32
106 8
107 32
108 16
109 2
110 2
111 1
112 32
113 16
114 32
115 16
116 8
117 2
118 2
119 2
120 32
121 32
122 2
123 2
124 2
125 32
126 2
127 2
128 16
129 8
130 2
131 2
132 2
133 32
134 16
135 8
136 2
137 2
138 2
139 1
140 32
141 32
142 16
143 8
144 2
145 1
146 32
147 16
148 32
149 2
150 1
151 32
152 32
153 32
154 8
155 2
156 2
157 32
158 16
159 8
160 2
161 2
162 2
163 32
164 32
165 8
166 2
167 2
168 2
169 16
170 2
171 2
172 1
173 32
174 32
175 8
176 2
177 2
178 1
179 32
180 8
181 2
182 2
183 2
184 1
185 16
186 8
187 2
188 32
189 2
190 2
191 2
192 1
193 16
194 8
195 2
196 2
197 2
198 32
199 32
200 8
201 1
DEPOT_SECTION
1
-1
EOF