SDVRP instances/custom_instances/p01_27_split0.sol
200 -11 7 10 6 8 5 9 125 126 124 74 22 23 -19 20 18 17 21 38 39 -26 24 28 27 25 29 132 31 33 32 30 -41 40 13 15 12 14 16 68 70 69 -57 56 177 172 176 175 173 174 98 99 95 97 96 94 -67 65 66 45 44 43 42 179 180 178 -75 72 71 73 188 189 187 191 190 114 117 118 115 116 113 195 194 193 196 192 -80 79 77 78 76 163 165 167 164 162 166 159 161 158 157 -82 62 63 61 60 64 123 120 121 119 122 -83 81 85 86 89 87 88 84 150 139 -90 46 47 108 110 106 109 107 185 184 186 168 171 170 169 147 148 149 -105 104 93 91 92 136 138 133 137 134 135 -111 112 49 52 50 48 51 156 145 -131 128 130 129 127 54 55 53 34 36 37 35 153 151 155 152 154 -146 4 1 3 2 198 199 197 200 -160 144 141 140 142 143 59 58 102 103 101 100 182 181 183 0 





OBJ=
1558.155
BEST_KNOWN=
0.000